Academic license - for non-commercial use only
Changed value of parameter TimeLimit to 600.0
   Prev: 1e+100  Min: 0.0  Max: 1e+100  Default: 1e+100
Optimize a model with 402 rows, 40602 columns and 81003 nonzeros
Variable types: 0 continuous, 40602 integer (40602 binary)
Coefficient statistics:
  Matrix range     [1e+00, 2e+03]
  Objective range  [1e+00, 1e+00]
  Bounds range     [1e+00, 1e+00]
  RHS range        [1e+00, 1e+00]
Found heuristic solution: objective 141.0000000
Presolve time: 0.07s
Presolved: 402 rows, 40602 columns, 81003 nonzeros
Variable types: 0 continuous, 40602 integer (40602 binary)

Root relaxation: objective 6.500000e+01, 1130 iterations, 0.06 seconds

    Nodes    |    Current Node    |     Objective Bounds      |     Work
 Expl Unexpl |  Obj  Depth IntInf | Incumbent    BestBd   Gap | It/Node Time

     0     0   65.00000    0   89  141.00000   65.00000  53.9%     -    0s
H    0     0                      76.0000000   65.00000  14.5%     -    0s
H    0     0                      71.0000000   65.00000  8.45%     -    0s
H    0     0                      69.0000000   65.00000  5.80%     -    1s
H    0     0                      68.0000000   65.00000  4.41%     -    1s
     0     0   65.00000    0  169   68.00000   65.00000  4.41%     -    1s
H    0     0                      67.0000000   65.00000  2.99%     -    2s
     0     0   65.00000    0  178   67.00000   65.00000  2.99%     -    2s
     0     0   65.00000    0  102   67.00000   65.00000  2.99%     -    4s
     0     0   65.00000    0   96   67.00000   65.00000  2.99%     -    4s
     0     2   65.00000    0   90   67.00000   65.00000  2.99%     -    5s
H   34    36                      66.0000000   65.00000  1.52%   187    9s
    38    39   65.00000    7   96   66.00000   65.00000  1.52%   168   11s
    41    41   65.00000    6   98   66.00000   65.00000  1.52%   156   17s
    42    42   65.00000    6  132   66.00000   65.00000  1.52%   152   56s
    48    47   65.00000    7  106   66.00000   65.00000  1.52%   550   60s
    53    50   65.00000    5  169   66.00000   65.00000  1.52%   498   65s
    57    53   65.00000    7  113   66.00000   65.00000  1.52%   463   70s
   167    91   65.00000   33  103   66.00000   65.00000  1.52%   407   75s
   397   186   65.00000   33  105   66.00000   65.00000  1.52%   205   82s
   510   254 infeasible   34        66.00000   65.00000  1.52%   178   85s
   763   410 infeasible   56        66.00000   65.00000  1.52%   146   91s
   881   492   65.00000   61  103   66.00000   65.00000  1.52%   134   96s
   995   543   65.00000   65  102   66.00000   65.00000  1.52%   130  100s
  1245   688   65.00000   82  100   66.00000   65.00000  1.52%   118  107s
  1381   760 infeasible   86        66.00000   65.00000  1.52%   113  112s
  1518   831 infeasible   94        66.00000   65.00000  1.52%   106  115s
  1818  1000   65.00000   94   88   66.00000   65.00000  1.52%  93.6  122s
  1975  1081   65.00000   90   84   66.00000   65.00000  1.52%  88.2  127s
  2102  1151   65.00000  107   85   66.00000   65.00000  1.52%  84.9  132s
  2230  1222   65.00000  117   84   66.00000   65.00000  1.52%  81.7  138s
  2398  1302   65.00000  111   81   66.00000   65.00000  1.52%  78.1  142s
  2559  1431 infeasible  126        66.00000   65.00000  1.52%  75.4  147s
  2734  1521   65.00000  141   83   66.00000   65.00000  1.52%  72.8  153s
  2896  1621   65.00000  148   80   66.00000   65.00000  1.52%  71.3  159s
  3057  1696   65.00000  163   74   66.00000   65.00000  1.52%  69.4  166s
  3227  1770   65.00000  179   76   66.00000   65.00000  1.52%  67.9  172s
  3419  1836   65.00000  191   81   66.00000   65.00000  1.52%  66.5  180s
  3614  1949   65.00000  205   82   66.00000   65.00000  1.52%  65.1  187s
  3814  2038 infeasible  226        66.00000   65.00000  1.52%  63.8  195s
  4020  2117 infeasible  199        66.00000   65.00000  1.52%  62.7  203s
  4232  2229   65.00000  190   71   66.00000   65.00000  1.52%  61.8  212s
  4473  2296   65.00000  189   73   66.00000   65.00000  1.52%  60.9  221s
  4707  2396   65.00000  200   72   66.00000   65.00000  1.52%  59.9  231s
  4972  2495   65.00000  204   73   66.00000   65.00000  1.52%  58.7  241s
  5218  2588   65.00000  218   75   66.00000   65.00000  1.52%  58.6  251s
  5512  2638   65.00000  237   71   66.00000   65.00000  1.52%  57.7  262s
  5807  2695   65.00000  232   70   66.00000   65.00000  1.52%  56.2  273s
  6164  2694 infeasible  221        66.00000   65.00000  1.52%  54.7  285s
  6492  2726   65.00000  218   73   66.00000   65.00000  1.52%  54.0  297s
  6844  2755   65.00000  188   71   66.00000   65.00000  1.52%  53.1  310s
  7176  2838 infeasible  217        66.00000   65.00000  1.52%  52.7  323s
  7538  2892   65.00000  232   73   66.00000   65.00000  1.52%  51.8  336s
  7903  2958   65.00000  225   72   66.00000   65.00000  1.52%  51.0  350s
  8311  2921   65.00000  203   76   66.00000   65.00000  1.52%  50.4  364s
  8736  2940   65.00000  203   67   66.00000   65.00000  1.52%  49.4  379s
  9113  2951 infeasible  233        66.00000   65.00000  1.52%  48.8  394s
  9493  2927 infeasible  210        66.00000   65.00000  1.52%  48.4  411s
  9935  2942 infeasible  212        66.00000   65.00000  1.52%  48.0  429s
 10423  2965 infeasible  222        66.00000   65.00000  1.52%  47.6  446s
 10898  2985 infeasible  216        66.00000   65.00000  1.52%  47.2  465s
 11361  3006   65.00000  219   80   66.00000   65.00000  1.52%  46.8  484s
 11820  3058   65.00000  226   70   66.00000   65.00000  1.52%  46.6  504s
 12309  3101 infeasible  227        66.00000   65.00000  1.52%  46.4  525s
 12894  3244   65.00000  208   78   66.00000   65.00000  1.52%  45.9  548s
 13402  3453 infeasible  189        66.00000   65.00000  1.52%  45.6  572s
 13985  3691   65.00000  174   81   66.00000   65.00000  1.52%  45.4  591s
 14621  3936   65.00000  181   76   66.00000   65.00000  1.52%  45.2  600s

Cutting planes:
  Gomory: 13
  Cover: 54
  Clique: 23
  Flow cover: 2
  Inf proof: 13
  Zero half: 7

Explored 14951 nodes (692786 simplex iterations) in 600.02 seconds
Thread count was 12 (of 12 available processors)

Solution count 7: 66 67 68 ... 141

Time limit reached
Best objective 6.600000000000e+01, best bound 6.500000000000e+01, gap 1.5152%
y[0]
y[1]
y[2]
y[3]
y[6]
y[7]
y[8]
y[14]
y[19]
y[20]
y[25]
y[26]
y[28]
y[29]
y[30]
y[40]
y[41]
y[45]
y[48]
y[53]
y[59]
y[63]
y[65]
y[67]
y[69]
y[70]
y[71]
y[77]
y[78]
y[79]
y[80]
y[81]
y[83]
y[85]
y[87]
y[91]
y[92]
y[96]
y[97]
y[106]
y[109]
y[111]
y[119]
y[124]
y[126]
y[131]
y[133]
y[137]
y[139]
y[143]
y[145]
y[147]
y[149]
y[150]
y[151]
y[153]
y[170]
y[175]
y[177]
y[178]
y[181]
y[189]
y[190]
y[193]
y[194]
y[196]
x[0][66]
x[0][70]
x[0][110]
x[1][33]
x[1][95]
x[1][160]
x[2][59]
x[2][64]
x[2][140]
x[3][25]
x[3][103]
x[3][186]
x[6][60]
x[6][71]
x[6][136]
x[7][36]
x[7][87]
x[7][170]
x[8][13]
x[8][124]
x[8][152]
x[14][42]
x[14][82]
x[19][4]
x[19][133]
x[20][14]
x[20][114]
x[25][2]
x[25][156]
x[25][162]
x[26][28]
x[26][96]
x[28][41]
x[28][86]
x[28][165]
x[29][27]
x[29][106]
x[29][153]
x[30][57]
x[30][68]
x[30][189]
x[40][62]
x[40][81]
x[40][147]
x[40][161]
x[40][164]
x[41][19]
x[41][130]
x[41][137]
x[45][38]
x[45][101]
x[45][135]
x[48][40]
x[48][102]
x[48][141]
x[53][54]
x[53][67]
x[59][20]
x[59][104]
x[63][45]
x[63][99]
x[63][127]
x[65][44]
x[65][91]
x[65][146]
x[67][6]
x[67][126]
x[69][7]
x[69][129]
x[70][31]
x[70][119]
x[70][120]
x[71][53]
x[71][65]
x[77][26]
x[77][100]
x[78][58]
x[78][85]
x[78][109]
x[79][12]
x[79][134]
x[79][145]
x[80][52]
x[80][75]
x[80][159]
x[81][50]
x[81][84]
x[81][142]
x[83][11]
x[83][115]
x[85][18]
x[85][113]
x[85][185]
x[85][193]
x[87][37]
x[87][88]
x[87][166]
x[91][15]
x[91][112]
x[92][16]
x[92][111]
x[96][32]
x[96][89]
x[97][61]
x[97][72]
x[97][144]
x[97][175]
x[97][183]
x[97][190]
x[106][9]
x[106][121]
x[109][55]
x[109][76]
x[109][155]
x[111][24]
x[111][97]
x[119][22]
x[119][98]
x[124][1]
x[124][150]
x[126][21]
x[126][116]
x[126][151]
x[126][197]
x[131][79]
x[131][80]
x[131][90]
x[131][139]
x[131][154]
x[131][184]
x[133][56]
x[133][69]
x[137][30]
x[137][132]
x[137][157]
x[137][171]
x[137][174]
x[137][178]
x[137][182]
x[139][46]
x[139][73]
x[143][51]
x[143][77]
x[143][167]
x[143][199]
x[145][3]
x[145][173]
x[145][179]
x[145][187]
x[145][188]
x[147][43]
x[147][107]
x[147][123]
x[149][23]
x[149][105]
x[149][176]
x[150][35]
x[150][94]
x[150][163]
x[150][191]
x[151][47]
x[151][74]
x[153][29]
x[153][92]
x[170][49]
x[170][78]
x[170][148]
x[175][63]
x[175][83]
x[175][158]
x[175][168]
x[175][192]
x[175][194]
x[175][195]
x[175][196]
x[175][198]
x[177][34]
x[177][108]
x[177][128]
x[178][0]
x[178][172]
x[178][181]
x[181][5]
x[181][143]
x[189][10]
x[189][117]
x[189][200]
x[190][39]
x[190][93]
x[190][149]
x[193][8]
x[193][131]
x[193][180]
x[194][17]
x[194][118]
x[194][169]
x[196][48]
x[196][122]
x[196][125]
x[196][138]
x[196][177]
Obj: 66.0
